NAME : portcgen-10-70
COMMENT : portcgen N=10, seed=70
TYPE : TSP
DIMENSION : 10
EDGE_WEIGHT_TYPE : EUC_2D
NODE_COORD_SECTION
1 60 85
2 80 80
3 85 85
4 106 94
5 88 68
6 50 81
7 81 82
8 69 77
9 90 81
10 62 67
